NAME lp_typeD_882
OBJSENSE MAX
ROWS
 N  OBJ
 L  c0      
 G  c1      
 G  c2      
 L  c_key_upper
 G  c_key_lower
 G  _chain_constr_1
 G  _chain_constr_2
 G  _chain_constr_3
 G  _chain_constr_4
 G  _chain_constr_5
 G  _chain_cycle
COLUMNS
    x0        OBJ       7.5606741778186337e-01
    x0        c0        1.4296014282772189e+00
    x0        c1        1.0830424756401040e+00
    x0        c2        8.2173410510847744e-01
    x0        c_key_upper  1.6221311003106331e+00
    x0        c_key_lower  1.6221311003106331e+00
    x1        OBJ       0.978834528450568
    x1        c0        1.6055428158923006e+00
    x1        c1        1.8860389639110271e+00
    x1        c2        8.2560934351591708e-01
    x1        c_key_upper  1.1288982578048481e+00
    x1        c_key_lower  1.1288982578048481e+00
    x2        OBJ       0.646905051484142
    x2        c0        6.7781153545241812e-01
    x2        c1        1.8724132038831656e+00
    x2        c2        1.8374920640024397e+00
    x2        c_key_upper  1.8864007180784066e+00
    x2        c_key_lower  1.8864007180784066e+00
    x3        OBJ       1.0282204362023630e+00
    x3        c0        9.4933454294418840e-01
    x3        c1        1.4362629930273718e+00
    x3        c2        1.7952659801802562e+00
    x3        c_key_upper  1.43865076949091
    x3        c_key_lower  1.43865076949091
    x4        OBJ       8.5130691970941752e-01
    x4        c0        7.8368953530796048e-01
    x4        c1        1.7115841983570808e+00
    x4        c2        1.1834123482706789e+00
    x4        c_key_upper  1.7890606326985792e+00
    x4        c_key_lower  1.7890606326985792e+00
    x5        OBJ       1.4845315262706220e+00
    x5        c0        1.1578902847014161e+00
    x5        c1        1.5207704153499755e+00
    x5        c2        9.0847114687577413e-01
    x5        c_key_upper  1.8466127646304449e+00
    x5        c_key_lower  1.8466127646304449e+00
    x6        OBJ       8.1873447888943029e-01
    x6        c0        1.7717138736981810e+00
    x6        c1        1.3803528106737215e+00
    x6        c2        1.5876914826315576e+00
    x6        c_key_upper  1.3992645860889188e+00
    x6        c_key_lower  1.3992645860889188e+00
    _chain_var_0  _chain_constr_1  -1
    _chain_var_0  _chain_cycle  1
    _chain_var_1  _chain_constr_1  1
    _chain_var_1  _chain_constr_2  -1
    _chain_var_2  _chain_constr_2  1
    _chain_var_2  _chain_constr_3  -1
    _chain_var_3  _chain_constr_3  1
    _chain_var_3  _chain_constr_4  -1
    _chain_var_4  _chain_constr_4  1
    _chain_var_4  _chain_constr_5  -1
    _chain_var_5  _chain_constr_5  1
    _chain_var_5  _chain_cycle  -1
RHS
    RHS1      c0        4.2838659620136625e+01
    RHS1      c1        1.5658590983948809e+01
    RHS1      c2        9.8281243352945076e+00
    RHS1      c_key_upper  5.5555094145513706e+01
    RHS1      c_key_lower  2.7777547072756853e+01
    RHS1      _chain_constr_1  10
    RHS1      _chain_constr_2  10
    RHS1      _chain_constr_3  10
    RHS1      _chain_constr_4  10
    RHS1      _chain_constr_5  10
    RHS1      _chain_cycle  10
BOUNDS
 UP BND1      x0        10
 UP BND1      x1        10
 UP BND1      x2        10
 UP BND1      x3        10
 UP BND1      x4        10
 UP BND1      x5        10
 UP BND1      x6        10
 UP BND1      _chain_var_0  100
 UP BND1      _chain_var_1  100
 UP BND1      _chain_var_2  100
 UP BND1      _chain_var_3  100
 UP BND1      _chain_var_4  100
 UP BND1      _chain_var_5  100
ENDATA
